c A SAT instance generated from a 3-CNF formula that had 18 clauses and 9 variables
p cnf 9 18
-3 1 -7 0
-2 9 6 0
5 -7 9 0
-2 -3 -8 0
-2 -4 -1 0
-6 -9 2 0
-1 7 -2 0
9 3 2 0
-2 -1 -5 0
8 -9 3 0
1 2 -9 0
-1 5 6 0
3 -1 -7 0
-5 -2 4 0
-3 4 9 0
-4 8 -2 0
5 -8 6 0
5 2 -3 0
